
Gurobi 9.1.2 (win64, Python) logging started Tue Oct 12 10:11:46 2021

Academic license - for non-commercial use only - expires 2021-12-10
Using license file C:\Users\asus\gurobi.lic
Set parameter LogFile to value gurobi.log

Gurobi 9.1.2 (win64, Python) logging started Tue Oct 12 12:13:09 2021

Academic license - for non-commercial use only - expires 2021-12-10
Using license file C:\Users\asus\gurobi.lic
Set parameter LogFile to value gurobi.log
